c Output_time 26.03.2020 18:13:23_+0100 1585242803145791469
c ** Program information **
c program_name                          "QBRG_debug"
c version                               "0.3.20"
c date                                  "25.3.2020"
c gid_id                                "673970833836058123f633335630c185360d632e"
c author                                "Oliver Kullmann"
c url                                   "https://github.com/OKullmann/oklibrary/blob/master/Satisfiability/Transformers/Generators/Random/QBRG.cpp"
c ** Machine information **
c machine_name                          "chyna-Lenovo-G50-70"
c bogomips                              3791.08
c ** Compilation information **
c compiler_version                      "g++ 7.5.0"
c compilation_date                      "Mar_26_2020 11:16:30"
c compilation_options                   "--std=c++17 -pedantic -fmax-errors=5 -Wall -Wextra -g -D_GLIBCXX_DEBUG"
c NDEBUG                                0
c OPTIMIZE                              0
c ** Parameters **
c command-line                          "./QBRG_debug" "e40 a40 40" "457*1,1|2-2,1|3-3,1" "" "1,t" ""
c output                                "QuBlRaGe_120_457_1585242803035616059.qdimacs"
c options                               "filtered,renamed"
c num_quantifier_blocks                 3
c  quantifier_blocks                    1:e1-40 2:a41-80 3:e81-120
c num_clause-blocks                     1
c  clause-blocks                        457 * {1-40,1,1/2} | {41-80,1,1/2} | {81-120,1,1/2}
c num_e-seeds                           30+2=32
c  e-seeds                              1 0 1 0 4 120 2 40 1 40 0 40 1 457 3 1 1 1 1 2 2 2 1 1 2 3 3 1 1 2 1 1585242803035615324
p cnf 120 457
e 1 2 3 4 5 6 7 8 9 10 11 12 13 14 15 16 17 18 19 20 21 22 23 24 25 26 27 28 29 30 31 32 33 34 35 36 37 38 39 40 0
a 41 42 43 44 45 46 47 48 49 50 51 52 53 54 55 56 57 58 59 60 61 62 63 64 65 66 67 68 69 70 71 72 73 74 75 76 77 78 79 80 0
e 81 82 83 84 85 86 87 88 89 90 91 92 93 94 95 96 97 98 99 100 101 102 103 104 105 106 107 108 109 110 111 112 113 114 115 116 117 118 119 120 0
11 57 -81 0
-36 -65 -81 0
12 65 -81 0
33 -66 -81 0
34 -72 -81 0
2 -74 -81 0
-35 74 -81 0
-24 78 -81 0
-34 41 81 0
-33 -55 81 0
39 63 81 0
30 -66 81 0
-13 -68 81 0
-8 45 -82 0
-14 49 -82 0
-6 51 -82 0
20 -53 -82 0
-9 54 -82 0
20 55 -82 0
4 -57 -82 0
-20 61 -82 0
19 72 -82 0
-35 -79 -82 0
-3 44 82 0
-11 52 82 0
-25 73 82 0
29 -41 -83 0
-10 -66 -83 0
-31 77 -83 0
-34 53 83 0
30 59 83 0
-11 -71 83 0
29 -55 -84 0
28 -56 -84 0
19 57 -84 0
25 -58 -84 0
19 71 -84 0
-32 -79 -84 0
26 -48 84 0
-5 -49 84 0
-14 61 84 0
14 -62 84 0
40 -68 84 0
-40 -69 84 0
20 -71 84 0
-26 74 84 0
25 -76 84 0
-30 -77 84 0
16 43 -85 0
4 44 -85 0
-22 44 -85 0
-21 56 -85 0
-8 63 -85 0
11 -64 -85 0
8 -42 85 0
-39 -56 85 0
31 68 85 0
-14 69 85 0
-7 74 85 0
-6 -41 -86 0
35 41 -86 0
30 52 -86 0
-20 58 -86 0
6 41 86 0
22 51 86 0
15 -55 86 0
19 75 86 0
-18 -79 86 0
-6 42 -87 0
-22 -47 -87 0
-40 -49 -87 0
33 67 -87 0
-12 -75 -87 0
-5 41 87 0
6 43 87 0
34 43 87 0
-12 -44 87 0
-8 48 87 0
-19 49 87 0
-15 -66 87 0
27 66 87 0
-24 -77 87 0
39 45 -88 0
37 47 -88 0
-8 51 -88 0
-34 -59 -88 0
24 64 -88 0
-38 -73 -88 0
-23 42 88 0
-38 65 88 0
35 72 88 0
-11 -76 88 0
-1 -41 -89 0
35 -50 -89 0
23 52 -89 0
-5 56 -89 0
-40 58 -89 0
-5 62 -89 0
31 -78 -89 0
18 -80 -89 0
14 50 89 0
-18 50 89 0
-39 -51 89 0
-37 -52 89 0
24 -58 89 0
33 -76 89 0
-12 59 -90 0
23 60 -90 0
25 -63 -90 0
-10 63 -90 0
39 43 90 0
35 57 90 0
-33 -62 90 0
39 -66 90 0
-32 46 -91 0
8 58 -91 0
-29 -73 -91 0
-35 75 -91 0
7 42 91 0
-18 43 91 0
-38 51 91 0
9 -54 91 0
-20 61 91 0
19 62 91 0
-5 -72 91 0
19 -80 91 0
38 80 91 0
-27 -69 -92 0
13 -76 -92 0
-30 -41 92 0
1 -44 92 0
-2 49 92 0
23 -54 92 0
-2 -59 92 0
-22 -61 92 0
32 -74 92 0
-39 -75 92 0
-9 76 92 0
-9 50 -93 0
8 52 -93 0
18 53 -93 0
-18 56 -93 0
23 -64 -93 0
29 -64 -93 0
6 -44 93 0
7 57 93 0
-8 -62 93 0
-28 74 93 0
11 41 -94 0
-7 44 -94 0
7 -57 -94 0
-15 61 -94 0
-18 -64 -94 0
11 -65 -94 0
15 -66 -94 0
15 74 -94 0
-35 -51 94 0
9 -52 94 0
-36 59 94 0
-31 62 94 0
35 -66 94 0
12 -45 -95 0
10 -47 -95 0
-12 -49 -95 0
24 -53 -95 0
8 -58 -95 0
-39 -74 -95 0
-29 -76 -95 0
39 52 95 0
3 -57 95 0
29 64 95 0
-14 -41 -96 0
-19 -45 -96 0
-30 45 -96 0
-6 -49 -96 0
29 50 -96 0
36 53 -96 0
-19 -54 -96 0
38 54 -96 0
38 56 -96 0
12 63 -96 0
-40 70 -96 0
35 71 -96 0
27 -76 -96 0
4 78 -96 0
6 -44 96 0
33 78 96 0
31 50 -97 0
6 -53 -97 0
-18 -57 -97 0
-35 64 -97 0
3 77 -97 0
39 -44 97 0
33 -51 97 0
25 -57 97 0
-25 61 97 0
-18 -64 97 0
-18 66 97 0
-9 75 97 0
-24 75 97 0
4 -79 97 0
15 46 -98 0
21 -52 -98 0
18 52 -98 0
40 68 -98 0
-27 71 -98 0
13 79 -98 0
27 -80 -98 0
-16 -45 98 0
-22 46 98 0
-29 -57 98 0
-29 -65 98 0
8 66 -99 0
9 69 -99 0
6 -72 -99 0
9 76 -99 0
11 79 -99 0
14 -50 99 0
33 55 99 0
-14 64 99 0
1 66 99 0
-11 67 99 0
9 -71 99 0
39 55 -100 0
-32 60 -100 0
-10 62 -100 0
-2 63 -100 0
35 -74 -100 0
2 42 100 0
-40 74 100 0
-16 77 100 0
-21 -56 -101 0
-25 58 -101 0
8 59 -101 0
19 -60 -101 0
-23 -60 -101 0
-29 -51 101 0
-4 62 101 0
34 66 101 0
-3 -71 101 0
36 -74 101 0
24 -80 101 0
32 41 -102 0
-26 43 -102 0
40 -53 -102 0
35 -55 -102 0
15 58 -102 0
-29 65 -102 0
-31 -68 102 0
4 -72 102 0
13 79 102 0
-26 -61 -103 0
-20 62 -103 0
3 63 -103 0
23 63 -103 0
-39 41 103 0
10 -47 103 0
7 50 103 0
17 -63 103 0
-8 69 103 0
13 75 103 0
-5 80 103 0
-15 -41 -104 0
3 45 -104 0
24 52 -104 0
14 -62 -104 0
-16 78 -104 0
-33 -48 104 0
-15 -76 104 0
-27 -48 -105 0
-25 53 -105 0
-32 -54 -105 0
-28 56 -105 0
38 -58 -105 0
19 -67 -105 0
21 -69 -105 0
-34 64 105 0
-11 -65 105 0
-40 74 105 0
-29 51 -106 0
-11 -57 -106 0
30 61 -106 0
-19 68 -106 0
-14 73 -106 0
17 -43 106 0
10 65 106 0
14 70 106 0
-7 75 106 0
15 45 -107 0
3 47 -107 0
16 -48 -107 0
40 -51 -107 0
-21 -60 -107 0
39 -67 -107 0
-24 -74 -107 0
14 66 107 0
11 68 107 0
-31 71 107 0
31 -76 107 0
-27 43 -108 0
-8 44 -108 0
-33 46 -108 0
-28 64 -108 0
-27 68 -108 0
9 70 -108 0
17 73 -108 0
-15 50 108 0
22 51 108 0
-1 -60 108 0
-4 71 108 0
-38 -73 108 0
36 -43 -109 0
-21 -49 -109 0
12 51 -109 0
-5 53 -109 0
-29 56 -109 0
35 -59 -109 0
-34 64 -109 0
-26 72 -109 0
2 -73 -109 0
6 -73 -109 0
-13 -73 -109 0
24 80 -109 0
-22 -47 109 0
6 63 109 0
-2 -65 109 0
25 71 109 0
-4 74 109 0
28 -49 -110 0
1 54 -110 0
-19 56 -110 0
7 57 -110 0
-32 46 110 0
-28 -52 110 0
-31 -72 110 0
20 73 110 0
-1 75 110 0
-10 75 110 0
-8 -56 -111 0
11 -63 -111 0
30 -76 -111 0
31 78 -111 0
10 -46 111 0
-28 48 111 0
-16 -59 111 0
22 63 111 0
4 74 111 0
-2 -41 -112 0
-25 -44 -112 0
-4 -48 -112 0
-1 -57 -112 0
-28 -62 -112 0
17 70 -112 0
-38 71 -112 0
28 -77 -112 0
36 80 -112 0
-4 -41 112 0
-19 -62 112 0
15 75 112 0
-22 -76 112 0
-26 76 112 0
-13 44 -113 0
-7 55 -113 0
17 64 -113 0
5 -65 -113 0
-15 66 -113 0
-39 74 -113 0
-20 -49 113 0
5 -51 113 0
-14 52 113 0
-13 62 113 0
-30 67 113 0
-36 67 113 0
14 69 113 0
6 -74 113 0
26 51 -114 0
-28 55 -114 0
-39 55 -114 0
29 52 114 0
-35 65 114 0
3 -73 114 0
40 78 114 0
-1 -43 -115 0
36 58 -115 0
-27 -59 -115 0
26 59 -115 0
1 67 -115 0
-10 69 -115 0
33 -53 115 0
10 57 115 0
5 -64 115 0
-32 65 115 0
9 -66 115 0
-7 68 115 0
-27 77 115 0
25 42 -116 0
-28 -51 -116 0
4 -61 -116 0
-21 -63 -116 0
-35 75 -116 0
15 80 -116 0
-23 52 116 0
-37 56 116 0
-34 -58 116 0
30 62 116 0
23 73 116 0
40 -45 -117 0
-12 -62 -117 0
14 -63 -117 0
6 -65 -117 0
-14 65 -117 0
29 -70 -117 0
21 77 -117 0
4 -44 117 0
-21 -44 117 0
-10 54 117 0
-37 -63 117 0
5 -47 -118 0
-24 -48 -118 0
1 -51 -118 0
11 51 -118 0
-15 52 -118 0
35 52 -118 0
-5 60 -118 0
-14 65 -118 0
1 42 118 0
1 -46 118 0
6 61 118 0
20 -65 118 0
27 41 -119 0
19 42 -119 0
37 42 -119 0
-25 55 -119 0
-39 58 -119 0
-33 62 -119 0
-25 -63 -119 0
-4 68 -119 0
-35 69 -119 0
-40 73 -119 0
17 74 -119 0
1 57 119 0
-18 61 119 0
7 -62 119 0
18 62 119 0
38 -77 119 0
11 -79 119 0
2 79 119 0
-39 58 -120 0
-22 -60 -120 0
16 -68 -120 0
-40 72 -120 0
10 42 120 0
35 -47 120 0
-10 47 120 0
-33 50 120 0
-12 58 120 0
6 66 120 0
